nb_edges = 45;
e_name = ["aa", "ab", "ac", "ad", "ae", "af", "ag", "ah", "ai", "aj", "ak", "al", "am", "an", "ao", "ap", "aq", "ar", "as", "at", "au", "av", "aw", "ax", "ay", "az", "ba", "bb", "bc", "bd", "be", "bf", "bg", "bh", "bi", "bj", "bk", "bl", "bm", "bn", "bo", "bp", "bq", "br", "bs"];
e_type = [border, border, inter, inter, inter, inter, inter, inter, inter, inter, inter, inter, inter, inter, inter, platform, platform, platform, platform, platform, platform, platform, platform, platform, platform, platform, platform, platform, platform, platform, inter, inter, inter, inter, inter, inter, inter, inter, inter, inter, inter, inter, inter, border, border];
e_cols = [{1},{2},{3},{4},{4},{5},{5},{5},{6,7},{6},{6},{7},{7},{7},{7},{8},{8},{8},{8},{8},{9},{9},{9},{9},{9},{10},{10},{10},{10},{10},{11,12},{11},{11},{11},{11},{12},{12},{13},{13},{13},{14},{15},{15},{16},{17}];
nb_trains = 8;
t_name = ["T1", "T2", "T3", "T4", "T5", "T6", "T7", "T8"];
t_routes = [{1},{2,3,4,5,6},{7},{8},{9,10,11,12,13},{14,15,16,17,18},{19,20,21,22,23},{24}];
t_est = [109, 1550, 307, 1106, 1379, 783, 188, 220];
t_type = [appear, pass, vanish, vanish, pass, pass, pass, vanish];
nb_routes = 24;
r_name = ["I3E", "IW1-I1E", "IW2-I2E", "IW3-I3E", "IW4-I4E", "IW5-I5E", "IW4", "IE2", "IE1-I1W", "IE2-I2W", "IE3-I3W", "IE4-I4W", "IE5-I5W", "IW1-I1E", "IW2-I2E", "IW3-I3E", "IW4-I4E", "IW5-I5E", "IW1-I1E", "IW2-I2E", "IW3-I3E", "IW4-I4E", "IW5-I5E", "IE5"];
r_it_1 = ["I3E", "IW1", "IW2", "IW3", "IW4", "IW5", "IW4", "IE2", "IE1", "IE2", "IE3", "IE4", "IE5", "IW1", "IW2", "IW3", "IW4", "IW5", "IW1", "IW2", "IW3", "IW4", "IW5", "IE5"];
r_it_2 = ["", "I1E", "I2E", "I3E", "I4E", "I5E", "", "", "I1W", "I2W", "I3W", "I4W", "I5W", "I1E", "I2E", "I3E", "I4E", "I5E", "I1E", "I2E", "I3E", "I4E", "I5E", ""];
r_platform_name = ["S_III", "S_I", "S_II", "S_III", "S_IV", "S_V", "S_IV", "S_II", "S_I", "S_II", "S_III", "S_IV", "S_V", "S_I", "S_II", "S_III", "S_IV", "S_V", "S_I", "S_II", "S_III", "S_IV", "S_V", "S_V"];
r_dwell_min = [0, 100, 100, 100, 100, 100, 100, 100, 0, 0, 0, 0, 0, 0, 0, 0, 0, 0, 0, 0, 0, 0, 0, 100];
r_dur_min = [60, 120, 120, 120, 120, 120, 60, 60, 120, 120, 120, 120, 120, 120, 120, 120, 120, 120, 120, 120, 120, 120, 120, 60];
r_overlap = [0, 1, 1, 1, 1, 1, 0, 0, 1, 1, 1, 1, 1, 1, 1, 1, 1, 1, 1, 1, 1, 1, 1, 0];
r_block_start = [1, 9, 20, 33, 46, 59, 72, 80, 88, 99, 112, 125, 138, 151, 162, 175, 188, 201, 214, 225, 238, 251, 264, 277];
r_block_end = [8, 19, 32, 45, 58, 71, 79, 87, 98, 111, 124, 137, 150, 161, 174, 187, 200, 213, 224, 237, 250, 263, 276, 284];
r_train = [1, 2, 2, 2, 2, 2, 3, 4, 5, 5, 5, 5, 5, 6, 6, 6, 6, 6, 7, 7, 7, 7, 7, 8];
nb_blocks = 284;
b_edge = [18, 23, 28, 33, 36, 38, 41, 44, 1, 3, 6, 9, 16, 21, 26, 31, 38, 41, 44, 1, 3, 6, 10, 12, 17, 22, 27, 32, 36, 38, 41, 44, 1, 3, 6, 10, 13, 18, 23, 28, 33, 36, 38, 41, 44, 1, 3, 7, 11, 14, 19, 24, 29, 34, 37, 39, 41, 44, 1, 3, 7, 11, 15, 20, 25, 30, 35, 37, 39, 41, 44, 1, 3, 7, 11, 14, 19, 24, 29, 45, 42, 38, 36, 32, 27, 22, 17, 45, 42, 38, 31, 26, 21, 16, 9, 6, 4, 2, 45, 42, 38, 36, 32, 27, 22, 17, 12, 10, 6, 4, 2, 45, 42, 38, 36, 33, 28, 23, 18, 13, 10, 6, 4, 2, 45, 43, 40, 37, 34, 29, 24, 19, 14, 11, 8, 5, 2, 45, 43, 40, 37, 35, 30, 25, 20, 15, 11, 8, 5, 2, 1, 3, 6, 9, 16, 21, 26, 31, 38, 41, 44, 1, 3, 6, 10, 12, 17, 22, 27, 32, 36, 38, 41, 44, 1, 3, 6, 10, 13, 18, 23, 28, 33, 36, 38, 41, 44, 1, 3, 7, 11, 14, 19, 24, 29, 34, 37, 39, 41, 44, 1, 3, 7, 11, 15, 20, 25, 30, 35, 37, 39, 41, 44, 1, 3, 6, 9, 16, 21, 26, 31, 38, 41, 44, 1, 3, 6, 10, 12, 17, 22, 27, 32, 36, 38, 41, 44, 1, 3, 6, 10, 13, 18, 23, 28, 33, 36, 38, 41, 44, 1, 3, 7, 11, 14, 19, 24, 29, 34, 37, 39, 41, 44, 1, 3, 7, 11, 15, 20, 25, 30, 35, 37, 39, 41, 44, 45, 43, 40, 37, 35, 30, 25, 20];
b_dur = [0, 0, 0, 12, 24, 36, 48, 60, 8, 17, 25, 34, 42, 51, 61, 15, 30, 45, 60, 7, 15, 22, 30, 37, 45, 52, 61, 12, 24, 36, 48, 60, 7, 15, 22, 30, 37, 45, 52, 61, 12, 24, 36, 48, 60, 7, 15, 22, 30, 37, 45, 52, 61, 12, 24, 36, 48, 60, 7, 15, 22, 30, 37, 45, 52, 61, 12, 24, 36, 48, 60, 7, 15, 22, 30, 37, 45, 52, 60, 7, 15, 22, 30, 37, 45, 52, 60, 8, 17, 25, 34, 42, 51, 61, 15, 30, 45, 60, 7, 15, 22, 30, 37, 45, 52, 61, 12, 24, 36, 48, 60, 7, 15, 22, 30, 37, 45, 52, 61, 12, 24, 36, 48, 60, 7, 15, 22, 30, 37, 45, 52, 61, 12, 24, 36, 48, 60, 7, 15, 22, 30, 37, 45, 52, 61, 12, 24, 36, 48, 60, 8, 17, 25, 34, 42, 51, 61, 15, 30, 45, 60, 7, 15, 22, 30, 37, 45, 52, 61, 12, 24, 36, 48, 60, 7, 15, 22, 30, 37, 45, 52, 61, 12, 24, 36, 48, 60, 7, 15, 22, 30, 37, 45, 52, 61, 12, 24, 36, 48, 60, 7, 15, 22, 30, 37, 45, 52, 61, 12, 24, 36, 48, 60, 8, 17, 25, 34, 42, 51, 61, 15, 30, 45, 60, 7, 15, 22, 30, 37, 45, 52, 61, 12, 24, 36, 48, 60, 7, 15, 22, 30, 37, 45, 52, 61, 12, 24, 36, 48, 60, 7, 15, 22, 30, 37, 45, 52, 61, 12, 24, 36, 48, 60, 7, 15, 22, 30, 37, 45, 52, 61, 12, 24, 36, 48, 60, 7, 15, 22, 30, 37, 45, 52, 60];
b_start_offset = [0, 0, 0, 0, -12, -24, -36, -48, 0, -8, -17, -25, -34, -42, -51, -1, -15, -30, -45, 0, -7, -15, -22, -30, -37, -45, -52, -1, -12, -24, -36, -48, 0, -7, -15, -22, -30, -37, -45, -52, -1, -12, -24, -36, -48, 0, -7, -15, -22, -30, -37, -45, -52, -1, -12, -24, -36, -48, 0, -7, -15, -22, -30, -37, -45, -52, -1, -12, -24, -36, -48, 0, -7, -15, -22, -30, -37, -45, -52, 0, -7, -15, -22, -30, -37, -45, -52, 0, -8, -17, -25, -34, -42, -51, -1, -15, -30, -45, 0, -7, -15, -22, -30, -37, -45, -52, -1, -12, -24, -36, -48, 0, -7, -15, -22, -30, -37, -45, -52, -1, -12, -24, -36, -48, 0, -7, -15, -22, -30, -37, -45, -52, -1, -12, -24, -36, -48, 0, -7, -15, -22, -30, -37, -45, -52, -1, -12, -24, -36, -48, 0, -8, -17, -25, -34, -42, -51, -1, -15, -30, -45, 0, -7, -15, -22, -30, -37, -45, -52, -1, -12, -24, -36, -48, 0, -7, -15, -22, -30, -37, -45, -52, -1, -12, -24, -36, -48, 0, -7, -15, -22, -30, -37, -45, -52, -1, -12, -24, -36, -48, 0, -7, -15, -22, -30, -37, -45, -52, -1, -12, -24, -36, -48, 0, -8, -17, -25, -34, -42, -51, -1, -15, -30, -45, 0, -7, -15, -22, -30, -37, -45, -52, -1, -12, -24, -36, -48, 0, -7, -15, -22, -30, -37, -45, -52, -1, -12, -24, -36, -48, 0, -7, -15, -22, -30, -37, -45, -52, -1, -12, -24, -36, -48, 0, -7, -15, -22, -30, -37, -45, -52, -1, -12, -24, -36, -48, 0, -7, -15, -22, -30, -37, -45, -52];
b_stop = [true, true, true, false, false, false, false, false, false, false, false, false, false, false, true, false, false, false, false, false, false, false, false, false, false, false, true, false, false, false, false, false, false, false, false, false, false, false, false, true, false, false, false, false, false, false, false, false, false, false, false, false, true, false, false, false, false, false, false, false, false, false, false, false, false, true, false, false, false, false, false, false, false, false, false, false, false, false, true, false, false, false, false, false, false, false, true, false, false, false, false, false, false, true, false, false, false, false, false, false, false, false, false, false, false, true, false, false, false, false, false, false, false, false, false, false, false, false, true, false, false, false, false, false, false, false, false, false, false, false, false, true, false, false, false, false, false, false, false, false, false, false, false, false, true, false, false, false, false, false, false, false, false, false, false, false, true, false, false, false, false, false, false, false, false, false, false, false, true, false, false, false, false, false, false, false, false, false, false, false, false, true, false, false, false, false, false, false, false, false, false, false, false, false, true, false, false, false, false, false, false, false, false, false, false, false, false, true, false, false, false, false, false, false, false, false, false, false, false, true, false, false, false, false, false, false, false, false, false, false, false, true, false, false, false, false, false, false, false, false, false, false, false, false, true, false, false, false, false, false, false, false, false, false, false, false, false, true, false, false, false, false, false, false, false, false, false, false, false, false, true, false, false, false, false, false, false, false, false, false, false, false, false, true];
b_route = [1, 1, 1, 1, 1, 1, 1, 1, 2, 2, 2, 2, 2, 2, 2, 2, 2, 2, 2, 3, 3, 3, 3, 3, 3, 3, 3, 3, 3, 3, 3, 3, 4, 4, 4, 4, 4, 4, 4, 4, 4, 4, 4, 4, 4, 5, 5, 5, 5, 5, 5, 5, 5, 5, 5, 5, 5, 5, 6, 6, 6, 6, 6, 6, 6, 6, 6, 6, 6, 6, 6, 7, 7, 7, 7, 7, 7, 7, 7, 8, 8, 8, 8, 8, 8, 8, 8, 9, 9, 9, 9, 9, 9, 9, 9, 9, 9, 9, 10, 10, 10, 10, 10, 10, 10, 10, 10, 10, 10, 10, 10, 11, 11, 11, 11, 11, 11, 11, 11, 11, 11, 11, 11, 11, 12, 12, 12, 12, 12, 12, 12, 12, 12, 12, 12, 12, 12, 13, 13, 13, 13, 13, 13, 13, 13, 13, 13, 13, 13, 13, 14, 14, 14, 14, 14, 14, 14, 14, 14, 14, 14, 15, 15, 15, 15, 15, 15, 15, 15, 15, 15, 15, 15, 15, 16, 16, 16, 16, 16, 16, 16, 16, 16, 16, 16, 16, 16, 17, 17, 17, 17, 17, 17, 17, 17, 17, 17, 17, 17, 17, 18, 18, 18, 18, 18, 18, 18, 18, 18, 18, 18, 18, 18, 19, 19, 19, 19, 19, 19, 19, 19, 19, 19, 19, 20, 20, 20, 20, 20, 20, 20, 20, 20, 20, 20, 20, 20, 21, 21, 21, 21, 21, 21, 21, 21, 21, 21, 21, 21, 21, 22, 22, 22, 22, 22, 22, 22, 22, 22, 22, 22, 22, 22, 23, 23, 23, 23, 23, 23, 23, 23, 23, 23, 23, 23, 23, 24, 24, 24, 24, 24, 24, 24, 24];
